Route #1: 71 62 99 98 89
Route #2: 93 75
Route #3: 79 11 85 30
Route #4: 7 2 45 43 29 36 72 57
Route #5: 34 64 96 48 26 47 38
Route #6: 74 13 4
Route #7: 8 17
Route #8: 63 77 3
Route #9: 28 42 78 65 25
Route #10: 21 56 94 80
Route #11: 14 49 6 37 87
Route #12: 5 12 58
Route #13: 1 70 54
Route #14: 100 61 23
Route #15: 40 88 67 44
Route #16: 31 46 35
Route #17: 27 97 19
Route #18: 86 9 92
Route #19: 32 33 53 73 95 24
Route #20: 59 60 82
Route #21: 83 51 81
Route #22: 18 10 39
Route #23: 15 22 41 20
Route #24: 69 16 55 76
Route #25: 66 84 90 68
Route #26: 50 91 52
Cost 27591.0000
Time 16.0005